3 3 2
30 0 43 2 10 0 15 1 16 2 33 0 44 2 15 1 24 2 14 1 30 0 9 1 17 0 24 1 26 2 42 0 26 2 44 0 9 1 32 0 35 2 21 1 19 0 31 1 29 2 47 0 20 1 31 2 33 0 33 2 40 
30 1 33 0 38 1 45 2 9 1 8 0 21 2 40 1 21 2 24 0 12 1 40 2 7 1 43 2 2 0 12 2 15 1 40 2 5 0 35 1 18 0 1 2 39 1 27 2 41 0 12 2 8 0 17 2 31 0 25 2 25 
30 0 28 1 21 0 28 1 42 0 5 2 19 0 9 2 41 0 39 1 35 2 29 1 8 0 27 1 18 0 5 2 37 0 9 2 44 0 22 1 5 0 27 2 3 0 3 1 40 2 38 1 1 2 20 1 43 0 6 1 49 

-------------
